100 69438

 20 781
773 216
171 716
44 801
654 347
774 173
814 3
494 451
206 353
738 555
700 189
247 860
904 258
105 227
983 481
861 499
688 216
939 272
723 170
191 719
443 771
72 463
390 715
742 736
387 139
331 967
596 822
873 205
48 187
386 126
159 139
696 749
106 470
665 783
287 747
199 605
937 687
19 19
438 312
22 638
484 10
502 33
322 852
133 685
377 266
673 688
783 793
531 307
590 37
201 933
288 346
162 107
250 492
225 769
520 222
563 270
945 243
196 992
642 198
818 576
561 926
256 147
263 971
40 948
306 885
745 215
48 635
220 761
707 987
783 181
456 767
699 339
388 176
160 422
399 794
580 465
949 538
69 996
508 400
329 616
509 366
24 393
314 696
820 938
554 543
451 769
286 90
299 212
384 503
836 21
968 253
439 518
394 15
847 265
427 515
553 574
231 926
744 646
532 415
810 931
